GRAPH IS : 
0 0 0 0 0 0 0 0 0 0 0 0 0 0 0 0 0 0 0 0 0 0 0 0 0 0 0 0 0 0 0 0 0 0 0 0 0 0 0 0 0 0 0 0 0 0 0 0 0 0 0 0 0 0 0 0 0 0 0 0 0 0 0 0 0 0 0 0 0 0 0 0 0 0 
0 0 0 0 1 1 0 0 0 1 1 1 0 1 0 0 0 0 0 0 0 0 1 0 0 1 0 0 0 1 0 0 0 0 0 0 0 0 0 0 1 0 0 0 1 0 0 0 0 1 1 0 0 0 0 1 0 0 0 1 0 0 0 1 0 0 0 0 0 1 0 0 1 0 
0 0 0 0 1 0 0 0 0 0 0 0 0 0 0 0 0 0 0 0 0 0 0 0 0 0 0 0 0 0 0 0 0 0 0 0 0 0 0 0 0 1 0 1 0 0 1 0 0 0 0 1 0 0 0 1 0 1 0 0 0 0 1 0 0 0 0 0 0 0 0 0 0 0 
0 0 0 0 0 0 0 0 0 1 0 0 0 0 0 0 0 0 0 0 0 0 0 0 0 0 0 0 0 0 0 0 0 0 0 0 0 0 0 0 0 0 0 0 0 0 0 0 0 0 0 0 1 1 0 1 0 0 0 0 0 0 0 0 0 0 0 0 0 0 0 0 0 0 
0 1 1 0 0 0 0 0 0 1 0 0 1 0 0 0 0 0 0 1 0 0 1 0 0 0 0 1 0 0 0 0 1 0 0 0 0 0 0 0 0 1 0 1 0 1 1 1 0 1 0 0 0 0 0 1 1 1 0 0 1 0 1 1 0 0 0 1 1 1 0 1 0 1 
0 1 0 0 0 0 0 0 0 0 0 1 0 1 0 0 0 0 0 0 0 0 0 0 0 1 0 0 0 1 0 0 0 0 0 0 0 0 0 0 1 0 0 0 0 0 0 0 0 1 1 0 0 0 0 1 0 0 0 1 0 0 0 0 0 0 0 0 0 0 0 0 0 0 
0 0 0 0 0 0 0 0 0 0 0 0 0 0 0 0 0 1 0 0 1 1 0 1 0 0 0 0 0 0 0 0 0 0 1 0 0 0 0 1 0 0 0 0 0 0 0 0 0 0 0 0 0 0 0 1 0 0 0 0 0 0 0 0 1 0 0 0 0 0 0 0 0 0 
0 0 0 0 0 0 0 0 0 0 0 0 0 0 0 0 0 0 0 0 0 0 0 0 0 0 0 0 0 0 0 0 0 0 0 0 0 0 0 0 0 0 0 0 0 0 0 0 0 0 0 0 0 0 0 0 0 0 0 0 0 0 0 0 0 0 0 0 0 0 1 0 0 0 
0 0 0 0 0 0 0 0 0 1 0 0 0 0 1 0 0 0 1 0 0 0 0 0 0 0 0 0 0 0 0 1 0 0 0 0 0 0 1 0 0 0 0 0 1 0 0 0 0 0 0 0 1 0 0 0 0 0 0 0 0 0 0 0 0 0 0 0 0 0 0 0 0 0 
0 1 0 1 1 0 0 0 1 0 1 0 0 0 1 0 0 0 1 0 0 0 1 0 0 0 0 0 0 0 0 1 0 0 0 0 0 0 1 0 0 0 0 0 1 0 0 0 0 1 0 0 1 1 0 1 0 0 0 0 0 0 0 0 0 0 1 0 0 1 0 0 1 0 
0 1 0 0 0 0 0 0 0 1 0 0 0 0 0 0 0 0 0 0 0 0 0 0 0 0 0 0 0 0 0 0 0 0 0 0 0 0 0 0 0 0 0 0 0 0 0 0 0 1 0 0 0 0 0 1 0 0 0 0 0 0 0 0 0 0 0 0 0 0 0 0 1 0 
0 1 0 0 0 1 0 0 0 0 0 0 0 1 0 0 0 0 0 0 0 0 0 0 0 1 0 0 0 1 0 0 0 0 0 0 0 0 0 0 1 0 0 0 0 0 0 0 0 1 1 0 0 0 0 1 0 0 0 1 0 0 0 0 0 0 0 0 0 0 0 0 0 0 
0 0 0 0 1 0 0 0 0 0 0 0 0 0 0 0 0 0 0 0 0 0 0 0 0 0 0 0 0 0 0 0 0 0 0 0 0 0 0 0 0 1 0 1 0 0 0 1 0 0 0 0 0 0 0 1 0 1 0 0 0 0 1 0 0 0 0 1 0 0 0 0 0 1 
0 1 0 0 0 1 0 0 0 0 0 1 0 0 0 0 0 0 0 0 0 0 0 0 0 1 0 0 0 1 0 0 0 0 0 0 0 0 0 0 1 0 0 0 0 0 0 0 0 1 1 0 0 0 0 1 0 0 0 1 0 0 0 0 0 0 0 0 0 0 0 0 0 0 
0 0 0 0 0 0 0 0 1 1 0 0 0 0 0 0 0 0 1 0 0 0 0 0 0 0 0 0 0 0 0 1 0 0 0 0 0 0 1 0 0 0 0 0 1 0 0 0 0 0 0 0 1 0 0 0 0 0 0 0 0 0 0 0 0 0 0 0 0 0 0 0 0 0 
0 0 0 0 0 0 0 0 0 0 0 0 0 0 0 0 0 0 0 0 0 0 1 0 0 0 0 0 0 0 0 0 0 0 0 0 0 0 0 0 0 0 0 0 0 0 0 0 0 0 0 0 0 0 0 1 0 0 0 0 0 0 0 0 0 0 0 0 0 0 0 0 0 0 
0 0 0 0 0 0 0 0 0 0 0 0 0 0 0 0 0 0 0 0 0 0 0 0 0 0 0 0 0 0 0 0 0 0 0 0 0 0 0 0 0 0 0 0 0 0 0 0 0 0 0 0 0 0 0 1 0 0 0 0 0 0 0 0 0 1 0 0 0 0 0 0 0 0 
0 0 0 0 0 0 1 0 0 0 0 0 0 0 0 0 0 0 0 0 1 1 0 1 0 0 0 0 1 0 1 0 0 0 1 0 0 0 0 1 0 0 0 0 0 0 0 0 0 0 0 0 0 0 0 1 0 0 0 0 0 0 0 0 1 0 0 0 0 0 0 0 0 0 
0 0 0 0 0 0 0 0 1 1 0 0 0 0 1 0 0 0 0 0 0 0 1 0 1 0 0 0 0 0 0 1 0 0 0 0 0 0 1 0 0 0 0 0 1 0 0 0 0 0 0 0 1 0 0 1 0 0 0 0 0 0 0 0 0 0 0 0 0 0 0 0 0 0 
0 0 0 0 1 0 0 0 0 0 0 0 0 0 0 0 0 0 0 0 0 0 0 0 0 0 0 1 0 0 0 0 0 0 0 0 0 0 0 0 0 1 0 0 0 0 0 0 0 0 0 0 0 0 0 1 1 1 0 0 1 0 0 0 0 0 0 0 1 0 0 0 0 1 
0 0 0 0 0 0 1 0 0 0 0 0 0 0 0 0 0 1 0 0 0 1 0 1 0 0 0 0 0 0 0 0 0 0 1 0 0 0 0 1 0 0 0 0 0 0 0 0 0 0 0 0 0 0 0 1 0 0 0 0 0 0 0 0 1 0 0 0 0 0 0 0 0 0 
0 0 0 0 0 0 1 0 0 0 0 0 0 0 0 0 0 1 0 0 1 0 0 1 0 0 0 0 0 0 0 0 0 0 1 0 0 0 0 1 0 0 0 0 0 0 0 0 0 0 0 0 0 0 0 1 0 0 0 0 0 0 0 0 1 0 0 0 0 0 0 0 0 0 
0 1 0 0 1 0 0 0 0 1 0 0 0 0 0 1 0 0 1 0 0 0 0 0 0 0 1 0 0 0 0 0 0 0 0 0 0 0 0 0 0 1 1 0 1 0 0 0 0 1 0 0 0 0 0 1 0 1 0 0 0 1 0 1 0 0 1 0 0 1 0 0 0 0 
0 0 0 0 0 0 1 0 0 0 0 0 0 0 0 0 0 1 0 0 1 1 0 0 0 0 0 0 0 0 1 0 0 0 1 0 0 0 0 1 0 0 0 0 0 0 0 0 0 0 0 0 0 0 0 1 0 0 0 0 0 0 0 0 1 0 0 0 0 0 0 0 0 0 
0 0 0 0 0 0 0 0 0 0 0 0 0 0 0 0 0 0 1 0 0 0 0 0 0 0 0 0 0 0 0 1 0 0 0 0 0 0 0 0 0 0 1 0 0 0 0 0 0 0 0 0 0 0 0 1 0 0 0 0 0 0 0 0 0 0 0 0 0 0 0 0 0 0 
0 1 0 0 0 1 0 0 0 0 0 1 0 1 0 0 0 0 0 0 0 0 0 0 0 0 0 0 0 1 0 0 0 0 0 0 0 0 0 0 1 0 0 0 0 0 0 0 0 1 1 0 0 0 0 1 0 0 0 1 0 0 0 0 0 0 0 0 0 0 0 0 0 0 
0 0 0 0 0 0 0 0 0 0 0 0 0 0 0 0 0 0 0 0 0 0 1 0 0 0 0 0 0 0 0 0 0 0 0 0 0 0 0 0 0 0 0 0 0 0 0 0 0 0 0 0 0 0 0 0 0 0 0 0 0 0 0 0 0 0 0 0 0 0 0 0 0 0 
0 0 0 0 1 0 0 0 0 0 0 0 0 0 0 0 0 0 0 1 0 0 0 0 0 0 0 0 0 0 0 0 0 0 0 0 0 0 0 0 0 1 0 0 0 0 0 0 0 0 0 0 0 0 0 1 1 1 0 0 1 0 1 0 0 0 0 0 1 0 0 0 0 1 
0 0 0 0 0 0 0 0 0 0 0 0 0 0 0 0 0 1 0 0 0 0 0 0 0 0 0 0 0 0 0 0 0 0 0 0 0 0 0 0 0 0 0 0 0 0 0 0 0 0 0 0 0 0 0 0 0 0 0 0 0 0 0 0 0 0 0 0 0 0 0 0 0 0 
0 1 0 0 0 1 0 0 0 0 0 1 0 1 0 0 0 0 0 0 0 0 0 0 0 1 0 0 0 0 0 0 0 0 0 0 0 0 0 0 1 0 0 0 0 0 0 0 0 1 1 0 0 0 0 1 0 0 0 1 0 0 0 0 0 0 0 0 0 0 0 0 0 0 
0 0 0 0 0 0 0 0 0 0 0 0 0 0 0 0 0 1 0 0 0 0 0 1 0 0 0 0 0 0 0 0 0 0 0 0 0 0 0 0 0 0 0 0 0 0 0 0 0 0 0 0 0 0 0 1 0 0 0 0 0 0 0 0 0 0 0 0 0 0 0 0 0 0 
0 0 0 0 0 0 0 0 1 1 0 0 0 0 1 0 0 0 1 0 0 0 0 0 1 0 0 0 0 0 0 0 0 0 0 0 0 0 1 0 0 0 0 0 1 0 0 0 0 0 0 0 1 0 0 1 0 0 0 0 0 0 0 0 0 0 0 0 0 0 0 0 0 0 
0 0 0 0 1 0 0 0 0 0 0 0 0 0 0 0 0 0 0 0 0 0 0 0 0 0 0 0 0 0 0 0 0 0 0 0 0 0 0 0 0 0 0 0 0 0 0 0 0 0 0 0 0 0 0 0 0 0 0 0 0 0 0 0 0 0 0 0 0 0 0 1 0 0 
0 0 0 0 0 0 0 0 0 0 0 0 0 0 0 0 0 0 0 0 0 0 0 0 0 0 0 0 0 0 0 0 0 0 0 0 0 0 0 0 0 0 0 0 0 0 0 0 0 1 0 0 0 0 0 0 0 0 0 0 0 0 0 0 0 0 0 0 0 0 0 0 0 0 
0 0 0 0 0 0 1 0 0 0 0 0 0 0 0 0 0 1 0 0 1 1 0 1 0 0 0 0 0 0 0 0 0 0 0 0 0 0 0 1 0 0 0 0 0 0 0 0 0 0 0 0 0 0 0 1 0 0 0 0 0 0 0 0 1 0 0 0 0 0 0 0 0 0 
0 0 0 0 0 0 0 0 0 0 0 0 0 0 0 0 0 0 0 0 0 0 0 0 0 0 0 0 0 0 0 0 0 0 0 0 0 0 0 0 0 0 0 0 0 0 0 0 1 0 0 0 0 0 0 0 0 0 1 0 0 0 0 0 0 0 0 0 0 0 0 0 0 0 
0 0 0 0 0 0 0 0 0 0 0 0 0 0 0 0 0 0 0 0 0 0 0 0 0 0 0 0 0 0 0 0 0 0 0 0 0 0 0 0 0 1 0 0 0 0 0 0 0 0 0 0 0 0 0 1 0 1 0 0 1 0 0 0 0 0 0 0 0 0 0 0 0 0 
0 0 0 0 0 0 0 0 0 0 0 0 0 0 0 0 0 0 0 0 0 0 0 0 0 0 0 0 0 0 0 0 0 0 0 0 0 0 0 0 0 0 0 0 0 0 0 0 0 1 0 0 0 0 0 0 0 0 0 0 0 0 0 0 0 0 0 0 0 0 0 0 1 0 
0 0 0 0 0 0 0 0 1 1 0 0 0 0 1 0 0 0 1 0 0 0 0 0 0 0 0 0 0 0 0 1 0 0 0 0 0 0 0 0 0 0 0 0 1 0 0 0 0 0 0 0 1 0 0 0 0 0 0 0 0 0 0 0 0 0 0 0 0 0 0 0 0 0 
0 0 0 0 0 0 1 0 0 0 0 0 0 0 0 0 0 1 0 0 1 1 0 1 0 0 0 0 0 0 0 0 0 0 1 0 0 0 0 0 0 0 0 0 0 0 0 0 0 0 0 0 0 0 0 1 0 0 0 0 0 0 0 0 1 0 0 0 0 0 0 0 0 0 
0 1 0 0 0 1 0 0 0 0 0 1 0 1 0 0 0 0 0 0 0 0 0 0 0 1 0 0 0 1 0 0 0 0 0 0 0 0 0 0 0 0 0 0 0 0 0 0 0 1 1 0 0 0 0 1 0 0 0 1 0 0 0 0 0 0 0 0 0 0 0 0 0 0 
0 0 1 0 1 0 0 0 0 0 0 0 1 0 0 0 0 0 0 1 0 0 1 0 0 0 0 1 0 0 0 0 0 0 0 0 1 0 0 0 0 0 0 1 0 0 1 1 0 0 0 1 0 0 0 1 1 1 0 0 1 0 1 0 0 0 0 1 1 0 0 0 0 1 
0 0 0 0 0 0 0 0 0 0 0 0 0 0 0 0 0 0 0 0 0 0 1 0 1 0 0 0 0 0 0 0 0 0 0 0 0 0 0 0 0 0 0 0 0 0 0 0 0 0 0 0 0 0 0 1 0 0 0 0 0 0 0 0 0 0 0 0 0 0 0 0 0 0 
0 0 1 0 1 0 0 0 0 0 0 0 1 0 0 0 0 0 0 0 0 0 0 0 0 0 0 0 0 0 0 0 0 0 0 0 0 0 0 0 0 1 0 0 0 0 0 1 0 0 0 1 0 0 0 0 0 1 0 0 0 0 0 0 0 0 0 1 0 0 0 0 0 1 
0 1 0 0 0 0 0 0 1 1 0 0 0 0 1 0 0 0 1 0 0 0 1 0 0 0 0 0 0 0 0 1 0 0 0 0 0 0 1 0 0 0 0 0 0 0 0 0 0 1 0 0 1 0 0 1 0 0 0 0 0 0 0 0 0 0 0 0 0 0 0 0 0 0 
0 0 0 0 1 0 0 0 0 0 0 0 0 0 0 0 0 0 0 0 0 0 0 0 0 0 0 0 0 0 0 0 0 0 0 0 0 0 0 0 0 0 0 0 0 0 0 0 0 0 0 0 0 0 0 0 0 0 0 0 0 0 0 0 0 0 0 0 0 0 0 1 0 0 
0 0 1 0 1 0 0 0 0 0 0 0 0 0 0 0 0 0 0 0 0 0 0 0 0 0 0 0 0 0 0 0 0 0 0 0 0 0 0 0 0 1 0 0 0 0 0 0 0 0 0 0 0 0 0 1 0 1 0 0 0 0 1 0 0 0 0 0 0 0 0 0 0 0 
0 0 0 0 1 0 0 0 0 0 0 0 1 0 0 0 0 0 0 0 0 0 0 0 0 0 0 0 0 0 0 0 0 0 0 0 0 0 0 0 0 1 0 1 0 0 0 0 0 0 0 0 0 0 0 1 0 1 0 0 0 0 1 0 0 0 0 1 0 0 0 0 0 1 
0 0 0 0 0 0 0 0 0 0 0 0 0 0 0 0 0 0 0 0 0 0 0 0 0 0 0 0 0 0 0 0 0 0 0 1 0 0 0 0 0 0 0 0 0 0 0 0 0 0 0 0 0 0 0 0 0 0 1 0 0 0 0 0 0 0 0 0 0 0 0 0 0 0 
0 1 0 0 1 1 0 0 0 1 1 1 0 1 0 0 0 0 0 0 0 0 1 0 0 1 0 0 0 1 0 0 0 1 0 0 0 1 0 0 1 0 0 0 1 0 0 0 0 0 1 0 0 0 0 1 0 0 0 1 0 0 0 0 0 0 0 0 0 1 0 0 1 0 
0 1 0 0 0 1 0 0 0 0 0 1 0 1 0 0 0 0 0 0 0 0 0 0 0 1 0 0 0 1 0 0 0 0 0 0 0 0 0 0 1 0 0 0 0 0 0 0 0 1 0 0 0 0 0 1 0 0 0 1 0 0 0 0 0 0 0 0 0 0 0 0 0 0 
0 0 1 0 0 0 0 0 0 0 0 0 0 0 0 0 0 0 0 0 0 0 0 0 0 0 0 0 0 0 0 0 0 0 0 0 0 0 0 0 0 1 0 1 0 0 0 0 0 0 0 0 0 0 0 0 0 1 0 0 0 0 0 0 0 0 0 0 0 0 0 0 0 0 
0 0 0 1 0 0 0 0 1 1 0 0 0 0 1 0 0 0 1 0 0 0 0 0 0 0 0 0 0 0 0 1 0 0 0 0 0 0 1 0 0 0 0 0 1 0 0 0 0 0 0 0 0 1 0 1 0 0 0 0 0 0 0 0 0 0 0 0 0 0 0 0 0 0 
0 0 0 1 0 0 0 0 0 1 0 0 0 0 0 0 0 0 0 0 0 0 0 0 0 0 0 0 0 0 0 0 0 0 0 0 0 0 0 0 0 0 0 0 0 0 0 0 0 0 0 0 1 0 0 1 0 0 0 0 0 0 0 0 0 0 0 0 0 0 0 0 0 0 
0 0 0 0 0 0 0 0 0 0 0 0 0 0 0 0 0 0 0 0 0 0 0 0 0 0 0 0 0 0 0 0 0 0 0 0 0 0 0 0 0 0 0 0 0 0 0 0 0 0 0 0 0 0 0 1 0 0 0 0 0 0 0 0 0 0 0 0 0 0 0 0 0 0 
0 1 1 1 1 1 1 0 0 1 1 1 1 1 0 1 1 1 1 1 1 1 1 1 1 1 0 1 0 1 1 1 0 0 1 0 1 0 0 1 1 1 1 0 1 0 1 1 0 1 1 0 1 1 1 0 1 1 0 1 1 0 1 0 1 1 1 1 1 1 0 0 1 1 
0 0 0 0 1 0 0 0 0 0 0 0 0 0 0 0 0 0 0 1 0 0 0 0 0 0 0 1 0 0 0 0 0 0 0 0 0 0 0 0 0 1 0 0 0 0 0 0 0 0 0 0 0 0 0 1 0 1 0 0 1 0 0 0 0 0 0 0 1 0 0 0 0 1 
0 0 1 0 1 0 0 0 0 0 0 0 1 0 0 0 0 0 0 1 0 0 1 0 0 0 0 1 0 0 0 0 0 0 0 0 1 0 0 0 0 1 0 1 0 0 1 1 0 0 0 1 0 0 0 1 1 0 0 0 1 0 1 0 0 0 0 1 1 0 0 0 0 1 
0 0 0 0 0 0 0 0 0 0 0 0 0 0 0 0 0 0 0 0 0 0 0 0 0 0 0 0 0 0 0 0 0 0 0 1 0 0 0 0 0 0 0 0 0 0 0 0 1 0 0 0 0 0 0 0 0 0 0 0 0 0 0 0 0 0 0 0 0 0 0 0 0 0 
0 1 0 0 0 1 0 0 0 0 0 1 0 1 0 0 0 0 0 0 0 0 0 0 0 1 0 0 0 1 0 0 0 0 0 0 0 0 0 0 1 0 0 0 0 0 0 0 0 1 1 0 0 0 0 1 0 0 0 0 0 0 0 0 0 0 0 0 0 0 0 0 0 0 
0 0 0 0 1 0 0 0 0 0 0 0 0 0 0 0 0 0 0 1 0 0 0 0 0 0 0 1 0 0 0 0 0 0 0 0 1 0 0 0 0 1 0 0 0 0 0 0 0 0 0 0 0 0 0 1 1 1 0 0 0 0 0 0 0 0 0 0 1 0 0 0 0 1 
0 0 0 0 0 0 0 0 0 0 0 0 0 0 0 0 0 0 0 0 0 0 1 0 0 0 0 0 0 0 0 0 0 0 0 0 0 0 0 0 0 0 0 0 0 0 0 0 0 0 0 0 0 0 0 0 0 0 0 0 0 0 0 0 0 0 0 0 0 0 0 0 0 0 
0 0 1 0 1 0 0 0 0 0 0 0 1 0 0 0 0 0 0 0 0 0 0 0 0 0 0 1 0 0 0 0 0 0 0 0 0 0 0 0 0 1 0 0 0 0 1 1 0 0 0 0 0 0 0 1 0 1 0 0 0 0 0 0 0 0 0 1 0 0 0 0 0 0 
0 1 0 0 1 0 0 0 0 0 0 0 0 0 0 0 0 0 0 0 0 0 1 0 0 0 0 0 0 0 0 0 0 0 0 0 0 0 0 0 0 0 0 0 0 0 0 0 0 0 0 0 0 0 0 0 0 0 0 0 0 0 0 0 0 0 0 0 0 0 0 0 0 0 
0 0 0 0 0 0 1 0 0 0 0 0 0 0 0 0 0 1 0 0 1 1 0 1 0 0 0 0 0 0 0 0 0 0 1 0 0 0 0 1 0 0 0 0 0 0 0 0 0 0 0 0 0 0 0 1 0 0 0 0 0 0 0 0 0 0 0 0 0 0 0 0 0 0 
0 0 0 0 0 0 0 0 0 0 0 0 0 0 0 0 1 0 0 0 0 0 0 0 0 0 0 0 0 0 0 0 0 0 0 0 0 0 0 0 0 0 0 0 0 0 0 0 0 0 0 0 0 0 0 1 0 0 0 0 0 0 0 0 0 0 0 0 0 0 0 0 0 0 
0 0 0 0 0 0 0 0 0 1 0 0 0 0 0 0 0 0 0 0 0 0 1 0 0 0 0 0 0 0 0 0 0 0 0 0 0 0 0 0 0 0 0 0 0 0 0 0 0 0 0 0 0 0 0 1 0 0 0 0 0 0 0 0 0 0 0 0 0 0 0 0 0 0 
0 0 0 0 1 0 0 0 0 0 0 0 1 0 0 0 0 0 0 0 0 0 0 0 0 0 0 0 0 0 0 0 0 0 0 0 0 0 0 0 0 1 0 1 0 0 0 1 0 0 0 0 0 0 0 1 0 1 0 0 0 0 1 0 0 0 0 0 0 0 0 0 0 1 
0 0 0 0 1 0 0 0 0 0 0 0 0 0 0 0 0 0 0 1 0 0 0 0 0 0 0 1 0 0 0 0 0 0 0 0 0 0 0 0 0 1 0 0 0 0 0 0 0 0 0 0 0 0 0 1 1 1 0 0 1 0 0 0 0 0 0 0 0 0 0 0 0 1 
0 1 0 0 1 0 0 0 0 1 0 0 0 0 0 0 0 0 0 0 0 0 1 0 0 0 0 0 0 0 0 0 0 0 0 0 0 0 0 0 0 0 0 0 0 0 0 0 0 1 0 0 0 0 0 1 0 0 0 0 0 0 0 0 0 0 0 0 0 0 0 0 0 0 
0 0 0 0 0 0 0 1 0 0 0 0 0 0 0 0 0 0 0 0 0 0 0 0 0 0 0 0 0 0 0 0 0 0 0 0 0 0 0 0 0 0 0 0 0 0 0 0 0 0 0 0 0 0 0 0 0 0 0 0 0 0 0 0 0 0 0 0 0 0 0 0 0 0 
0 0 0 0 1 0 0 0 0 0 0 0 0 0 0 0 0 0 0 0 0 0 0 0 0 0 0 0 0 0 0 0 1 0 0 0 0 0 0 0 0 0 0 0 0 1 0 0 0 0 0 0 0 0 0 0 0 0 0 0 0 0 0 0 0 0 0 0 0 0 0 0 0 0 
0 1 0 0 0 0 0 0 0 1 1 0 0 0 0 0 0 0 0 0 0 0 0 0 0 0 0 0 0 0 0 0 0 0 0 0 0 1 0 0 0 0 0 0 0 0 0 0 0 1 0 0 0 0 0 1 0 0 0 0 0 0 0 0 0 0 0 0 0 0 0 0 0 0 
0 0 0 0 1 0 0 0 0 0 0 0 1 0 0 0 0 0 0 1 0 0 0 0 0 0 0 1 0 0 0 0 0 0 0 0 0 0 0 0 0 1 0 1 0 0 0 1 0 0 0 0 0 0 0 1 1 1 0 0 1 0 0 0 0 0 0 1 1 0 0 0 0 0 




----------------------------

EPOCH: 0 MAX:  -41.891891892    AVG:  -45.858108108
EPOCH: 1 MAX:  -40.540540541    AVG:  -44.091216216
EPOCH: 2 MAX:  -40.540540541    AVG:  -43.391891892
EPOCH: 3 MAX:  -40.540540541    AVG:  -42.733108108
EPOCH: 4 MAX:  -39.864864865    AVG:  -42.283783784
EPOCH: 5 MAX:  -39.864864865    AVG:  -41.824324324
EPOCH: 6 MAX:  -39.189189189    AVG:  -41.320945946
EPOCH: 7 MAX:  -38.513513514    AVG:  -40.929054054
EPOCH: 8 MAX:  -38.513513514    AVG:  -40.510135135
EPOCH: 9 MAX:  -38.513513514    AVG:  -40.168918919
EPOCH: 10 MAX:  -37.837837838    AVG:  -39.885135135
EPOCH: 11 MAX:  -37.837837838    AVG:  -39.537162162
EPOCH: 12 MAX:  -36.486486486    AVG:  -39.337837838
EPOCH: 13 MAX:  -36.486486486    AVG:  -38.935810811
EPOCH: 14 MAX:  -36.486486486    AVG:  -38.591216216
EPOCH: 15 MAX:  -35.810810811    AVG:  -38.192567568
EPOCH: 16 MAX:  -35.810810811    AVG:  -37.851351351
EPOCH: 17 MAX:  -35.810810811    AVG:  -37.442567568
EPOCH: 18 MAX:  -35.135135135    AVG:  -36.945945946
EPOCH: 19 MAX:  -33.783783784    AVG:  -36.341216216
EPOCH: 20 MAX:  -33.783783784    AVG:  -35.635135135
EPOCH: 21 MAX:  -33.783783784    AVG:  -35.057432432
EPOCH: 22 MAX:  -33.108108108    AVG:  -34.628378378
EPOCH: 23 MAX:  -33.108108108    AVG:  -34.280405405
EPOCH: 24 MAX:  -33.108108108    AVG:  -34.027027027
EPOCH: 25 MAX:  -32.432432432    AVG:  -33.648648649
EPOCH: 26 MAX:  -32.432432432    AVG:  -33.395270270
EPOCH: 27 MAX:  -32.432432432    AVG:  -33.027027027
EPOCH: 28 MAX:  -31.756756757    AVG:  -32.847972973
EPOCH: 29 MAX:  -31.756756757    AVG:  -32.479729730
EPOCH: 30 MAX:  -31.756756757    AVG:  -32.297297297
EPOCH: 31 MAX:  -31.756756757    AVG:  -32.108108108
EPOCH: 32 MAX:  -31.756756757    AVG:  -31.756756757
EPOCH: 33 MAX:  -31.756756757    AVG:  -31.756756757
EPOCH: 34 MAX:  -31.756756757    AVG:  -31.756756757
EPOCH: 35 MAX:  -31.756756757    AVG:  -31.756756757
EPOCH: 36 MAX:  -31.756756757    AVG:  -31.756756757
EPOCH: 37 MAX:  -31.756756757    AVG:  -31.756756757
EPOCH: 38 MAX:  -31.756756757    AVG:  -31.756756757
EPOCH: 39 MAX:  -31.756756757    AVG:  -31.756756757
EPOCH: 40 MAX:  -31.756756757    AVG:  -31.756756757
EPOCH: 41 MAX:  -31.756756757    AVG:  -31.756756757
EPOCH: 42 MAX:  -31.756756757    AVG:  -31.756756757
EPOCH: 43 MAX:  -31.756756757    AVG:  -31.756756757
EPOCH: 44 MAX:  -31.756756757    AVG:  -31.756756757
EPOCH: 45 MAX:  -31.756756757    AVG:  -31.756756757
EPOCH: 46 MAX:  -31.756756757    AVG:  -31.756756757
EPOCH: 47 MAX:  -31.756756757    AVG:  -31.756756757
EPOCH: 48 MAX:  -31.756756757    AVG:  -31.756756757
EPOCH: 49 MAX:  -31.756756757    AVG:  -31.756756757
EPOCH: 50 MAX:  -31.756756757    AVG:  -31.756756757
EPOCH: 51 MAX:  -31.756756757    AVG:  -31.756756757
EPOCH: 52 MAX:  -31.756756757    AVG:  -31.756756757
EPOCH: 53 MAX:  -31.756756757    AVG:  -31.756756757
EPOCH: 54 MAX:  -31.081081081    AVG:  -31.750000000
EPOCH: 55 MAX:  -31.081081081    AVG:  -31.736486486
EPOCH: 56 MAX:  -31.081081081    AVG:  -31.706081081
EPOCH: 57 MAX:  -30.405405405    AVG:  -31.625000000
EPOCH: 58 MAX:  -30.405405405    AVG:  -31.331081081
EPOCH: 59 MAX:  -30.405405405    AVG:  -30.945945946
EPOCH: 60 MAX:  -30.405405405    AVG:  -30.773648649
EPOCH: 61 MAX:  -30.405405405    AVG:  -30.405405405
EPOCH: 62 MAX:  -30.405405405    AVG:  -30.405405405
EPOCH: 63 MAX:  -30.405405405    AVG:  -30.405405405
EPOCH: 64 MAX:  -30.405405405    AVG:  -30.405405405
EPOCH: 65 MAX:  -30.405405405    AVG:  -30.405405405
EPOCH: 66 MAX:  -30.405405405    AVG:  -30.405405405
EPOCH: 67 MAX:  -30.405405405    AVG:  -30.405405405
EPOCH: 68 MAX:  -30.405405405    AVG:  -30.405405405
EPOCH: 69 MAX:  -30.405405405    AVG:  -30.405405405
EPOCH: 70 MAX:  -30.405405405    AVG:  -30.405405405
EPOCH: 71 MAX:  -30.405405405    AVG:  -30.405405405
EPOCH: 72 MAX:  -30.405405405    AVG:  -30.405405405
EPOCH: 73 MAX:  -30.405405405    AVG:  -30.405405405
EPOCH: 74 MAX:  -30.405405405    AVG:  -30.405405405
EPOCH: 75 MAX:  -30.405405405    AVG:  -30.405405405
EPOCH: 76 MAX:  -30.405405405    AVG:  -30.405405405
EPOCH: 77 MAX:  -30.405405405    AVG:  -30.405405405
EPOCH: 78 MAX:  -30.405405405    AVG:  -30.405405405
EPOCH: 79 MAX:  -30.405405405    AVG:  -30.405405405
EPOCH: 80 MAX:  -30.405405405    AVG:  -30.405405405
EPOCH: 81 MAX:  -30.405405405    AVG:  -30.405405405
EPOCH: 82 MAX:  -30.405405405    AVG:  -30.405405405
EPOCH: 83 MAX:  -30.405405405    AVG:  -30.405405405
EPOCH: 84 MAX:  -30.405405405    AVG:  -30.405405405
EPOCH: 85 MAX:  -30.405405405    AVG:  -30.405405405
EPOCH: 86 MAX:  -30.405405405    AVG:  -30.405405405
EPOCH: 87 MAX:  -30.405405405    AVG:  -30.405405405
EPOCH: 88 MAX:  -30.405405405    AVG:  -30.405405405
EPOCH: 89 MAX:  -30.405405405    AVG:  -30.405405405
EPOCH: 90 MAX:  -30.405405405    AVG:  -30.405405405
EPOCH: 91 MAX:  -30.405405405    AVG:  -30.405405405
EPOCH: 92 MAX:  -30.405405405    AVG:  -30.405405405
EPOCH: 93 MAX:  -30.405405405    AVG:  -30.405405405
EPOCH: 94 MAX:  -30.405405405    AVG:  -30.405405405
EPOCH: 95 MAX:  -30.405405405    AVG:  -30.405405405
EPOCH: 96 MAX:  -30.405405405    AVG:  -30.405405405
EPOCH: 97 MAX:  -30.405405405    AVG:  -30.405405405
EPOCH: 98 MAX:  -30.405405405    AVG:  -30.405405405
EPOCH: 99 MAX:  -30.405405405    AVG:  -30.405405405
EPOCH: 100 MAX:  -30.405405405    AVG:  -30.405405405
EPOCH: 101 MAX:  -30.405405405    AVG:  -30.405405405
EPOCH: 102 MAX:  -30.405405405    AVG:  -30.405405405
EPOCH: 103 MAX:  -30.405405405    AVG:  -30.405405405
EPOCH: 104 MAX:  -30.405405405    AVG:  -30.405405405
EPOCH: 105 MAX:  -30.405405405    AVG:  -30.405405405
EPOCH: 106 MAX:  -30.405405405    AVG:  -30.405405405
EPOCH: 107 MAX:  -30.405405405    AVG:  -30.405405405
EPOCH: 108 MAX:  -30.405405405    AVG:  -30.405405405
EPOCH: 109 MAX:  -30.405405405    AVG:  -30.405405405
EPOCH: 110 MAX:  -30.405405405    AVG:  -30.405405405
HELPER:  ....
EPOCH: 111 MAX:  -30.405405405    AVG:  -30.405405405
EPOCH: 112 MAX:  -30.405405405    AVG:  -30.405405405
EPOCH: 113 MAX:  -30.405405405    AVG:  -30.405405405
EPOCH: 114 MAX:  -30.405405405    AVG:  -30.405405405
EPOCH: 115 MAX:  -30.405405405    AVG:  -30.405405405
EPOCH: 116 MAX:  -30.405405405    AVG:  -30.405405405
EPOCH: 117 MAX:  -30.405405405    AVG:  -30.405405405
EPOCH: 118 MAX:  -30.405405405    AVG:  -30.405405405
EPOCH: 119 MAX:  -30.405405405    AVG:  -30.405405405
EPOCH: 120 MAX:  -30.405405405    AVG:  -30.405405405
EPOCH: 121 MAX:  -30.405405405    AVG:  -30.405405405
EPOCH: 122 MAX:  -30.405405405    AVG:  -30.405405405
EPOCH: 123 MAX:  -30.405405405    AVG:  -30.405405405
EPOCH: 124 MAX:  -30.405405405    AVG:  -30.405405405
EPOCH: 125 MAX:  -30.405405405    AVG:  -30.405405405
EPOCH: 126 MAX:  -30.405405405    AVG:  -30.405405405
EPOCH: 127 MAX:  -30.405405405    AVG:  -30.405405405
EPOCH: 128 MAX:  -30.405405405    AVG:  -30.405405405
EPOCH: 129 MAX:  -30.405405405    AVG:  -30.405405405
EPOCH: 130 MAX:  -30.405405405    AVG:  -30.405405405
EPOCH: 131 MAX:  -30.405405405    AVG:  -30.405405405
EPOCH: 132 MAX:  -30.405405405    AVG:  -30.405405405
EPOCH: 133 MAX:  -30.405405405    AVG:  -30.405405405
EPOCH: 134 MAX:  -30.405405405    AVG:  -30.405405405
EPOCH: 135 MAX:  -30.405405405    AVG:  -30.405405405
EPOCH: 136 MAX:  -30.405405405    AVG:  -30.405405405
EPOCH: 137 MAX:  -30.405405405    AVG:  -30.405405405
EPOCH: 138 MAX:  -30.405405405    AVG:  -30.405405405
EPOCH: 139 MAX:  -30.405405405    AVG:  -30.405405405
EPOCH: 140 MAX:  -30.405405405    AVG:  -30.405405405
EPOCH: 141 MAX:  -30.405405405    AVG:  -30.405405405
EPOCH: 142 MAX:  -30.405405405    AVG:  -30.405405405
EPOCH: 143 MAX:  -30.405405405    AVG:  -30.405405405
EPOCH: 144 MAX:  -30.405405405    AVG:  -30.405405405
EPOCH: 145 MAX:  -30.405405405    AVG:  -30.405405405
EPOCH: 146 MAX:  -30.405405405    AVG:  -30.405405405
EPOCH: 147 MAX:  -30.405405405    AVG:  -30.405405405
EPOCH: 148 MAX:  -30.405405405    AVG:  -30.405405405
EPOCH: 149 MAX:  -30.405405405    AVG:  -30.405405405
EPOCH: 150 MAX:  -30.405405405    AVG:  -30.405405405
EPOCH: 151 MAX:  -30.405405405    AVG:  -30.405405405
EPOCH: 152 MAX:  -30.405405405    AVG:  -30.405405405
EPOCH: 153 MAX:  -30.405405405    AVG:  -30.405405405
EPOCH: 154 MAX:  -30.405405405    AVG:  -30.405405405
EPOCH: 155 MAX:  -30.405405405    AVG:  -30.405405405
EPOCH: 156 MAX:  -30.405405405    AVG:  -30.405405405
EPOCH: 157 MAX:  -30.405405405    AVG:  -30.405405405
EPOCH: 158 MAX:  -30.405405405    AVG:  -30.405405405
EPOCH: 159 MAX:  -30.405405405    AVG:  -30.405405405
EPOCH: 160 MAX:  -30.405405405    AVG:  -30.405405405
EPOCH: 161 MAX:  -30.405405405    AVG:  -30.405405405
EPOCH: 162 MAX:  -30.405405405    AVG:  -30.405405405
EPOCH: 163 MAX:  -30.405405405    AVG:  -30.405405405
EPOCH: 164 MAX:  -30.405405405    AVG:  -30.405405405
EPOCH: 165 MAX:  -30.405405405    AVG:  -30.405405405
EPOCH: 166 MAX:  -30.405405405    AVG:  -30.405405405
EPOCH: 167 MAX:  -30.405405405    AVG:  -30.405405405
EPOCH: 168 MAX:  -30.405405405    AVG:  -30.405405405
EPOCH: 169 MAX:  -30.405405405    AVG:  -30.405405405
EPOCH: 170 MAX:  -30.405405405    AVG:  -30.405405405
EPOCH: 171 MAX:  -30.405405405    AVG:  -30.405405405
EPOCH: 172 MAX:  -30.405405405    AVG:  -30.405405405
EPOCH: 173 MAX:  -30.405405405    AVG:  -30.405405405
EPOCH: 174 MAX:  -30.405405405    AVG:  -30.405405405
EPOCH: 175 MAX:  -30.405405405    AVG:  -30.405405405
EPOCH: 176 MAX:  -30.405405405    AVG:  -30.405405405
EPOCH: 177 MAX:  -30.405405405    AVG:  -30.405405405
EPOCH: 178 MAX:  -30.405405405    AVG:  -30.405405405
EPOCH: 179 MAX:  -30.405405405    AVG:  -30.405405405
EPOCH: 180 MAX:  -30.405405405    AVG:  -30.405405405
HELPER:  ....
EPOCH: 181 MAX:  -30.405405405    AVG:  -30.405405405
EPOCH: 182 MAX:  -30.405405405    AVG:  -30.405405405
EPOCH: 183 MAX:  -30.405405405    AVG:  -30.405405405
EPOCH: 184 MAX:  -30.405405405    AVG:  -30.405405405
EPOCH: 185 MAX:  -30.405405405    AVG:  -30.405405405
EPOCH: 186 MAX:  -30.405405405    AVG:  -30.405405405
EPOCH: 187 MAX:  -30.405405405    AVG:  -30.405405405
EPOCH: 188 MAX:  -30.405405405    AVG:  -30.405405405
EPOCH: 189 MAX:  -30.405405405    AVG:  -30.405405405
EPOCH: 190 MAX:  -30.405405405    AVG:  -30.405405405
EPOCH: 191 MAX:  -30.405405405    AVG:  -30.405405405
EPOCH: 192 MAX:  -30.405405405    AVG:  -30.405405405
EPOCH: 193 MAX:  -30.405405405    AVG:  -30.405405405
EPOCH: 194 MAX:  -30.405405405    AVG:  -30.405405405
EPOCH: 195 MAX:  -30.405405405    AVG:  -30.405405405
EPOCH: 196 MAX:  -30.405405405    AVG:  -30.405405405
EPOCH: 197 MAX:  -30.405405405    AVG:  -30.405405405
EPOCH: 198 MAX:  -30.405405405    AVG:  -30.405405405
EPOCH: 199 MAX:  -30.405405405    AVG:  -30.405405405
EPOCH: 200 MAX:  -30.405405405    AVG:  -30.405405405
EPOCH: 201 MAX:  -30.405405405    AVG:  -30.405405405
EPOCH: 202 MAX:  -30.405405405    AVG:  -30.405405405
EPOCH: 203 MAX:  -30.405405405    AVG:  -30.405405405
EPOCH: 204 MAX:  -30.405405405    AVG:  -30.405405405
EPOCH: 205 MAX:  -30.405405405    AVG:  -30.405405405
EPOCH: 206 MAX:  -30.405405405    AVG:  -30.405405405
EPOCH: 207 MAX:  -30.405405405    AVG:  -30.405405405
EPOCH: 208 MAX:  -30.405405405    AVG:  -30.405405405
EPOCH: 209 MAX:  -30.405405405    AVG:  -30.405405405
EPOCH: 210 MAX:  -30.405405405    AVG:  -30.405405405
EPOCH: 211 MAX:  -30.405405405    AVG:  -30.405405405
EPOCH: 212 MAX:  -30.405405405    AVG:  -30.405405405
EPOCH: 213 MAX:  -30.405405405    AVG:  -30.405405405
EPOCH: 214 MAX:  -30.405405405    AVG:  -30.405405405
EPOCH: 215 MAX:  -30.405405405    AVG:  -30.405405405
EPOCH: 216 MAX:  -30.405405405    AVG:  -30.405405405
EPOCH: 217 MAX:  -30.405405405    AVG:  -30.405405405
EPOCH: 218 MAX:  -30.405405405    AVG:  -30.405405405
EPOCH: 219 MAX:  -30.405405405    AVG:  -30.405405405
EPOCH: 220 MAX:  -30.405405405    AVG:  -30.405405405
EPOCH: 221 MAX:  -30.405405405    AVG:  -30.405405405
EPOCH: 222 MAX:  -30.405405405    AVG:  -30.405405405
EPOCH: 223 MAX:  -30.405405405    AVG:  -30.405405405
EPOCH: 224 MAX:  -30.405405405    AVG:  -30.405405405
EPOCH: 225 MAX:  -30.405405405    AVG:  -30.405405405
EPOCH: 226 MAX:  -30.405405405    AVG:  -30.405405405
EPOCH: 227 MAX:  -30.405405405    AVG:  -30.405405405
EPOCH: 228 MAX:  -30.405405405    AVG:  -30.405405405
EPOCH: 229 MAX:  -30.405405405    AVG:  -30.405405405
EPOCH: 230 MAX:  -30.405405405    AVG:  -30.405405405
EPOCH: 231 MAX:  -30.405405405    AVG:  -30.405405405
EPOCH: 232 MAX:  -30.405405405    AVG:  -30.405405405
EPOCH: 233 MAX:  -30.405405405    AVG:  -30.405405405
EPOCH: 234 MAX:  -30.405405405    AVG:  -30.405405405
EPOCH: 235 MAX:  -30.405405405    AVG:  -30.405405405
EPOCH: 236 MAX:  -30.405405405    AVG:  -30.405405405
EPOCH: 237 MAX:  -30.405405405    AVG:  -30.405405405
EPOCH: 238 MAX:  -30.405405405    AVG:  -30.405405405
EPOCH: 239 MAX:  -30.405405405    AVG:  -30.405405405
EPOCH: 240 MAX:  -30.405405405    AVG:  -30.405405405
EPOCH: 241 MAX:  -30.405405405    AVG:  -30.405405405
EPOCH: 242 MAX:  -30.405405405    AVG:  -30.405405405
EPOCH: 243 MAX:  -30.405405405    AVG:  -30.405405405
EPOCH: 244 MAX:  -30.405405405    AVG:  -30.405405405
EPOCH: 245 MAX:  -30.405405405    AVG:  -30.405405405
EPOCH: 246 MAX:  -30.405405405    AVG:  -30.405405405
EPOCH: 247 MAX:  -30.405405405    AVG:  -30.405405405
EPOCH: 248 MAX:  -30.405405405    AVG:  -30.405405405
EPOCH: 249 MAX:  -30.405405405    AVG:  -30.405405405
EPOCH: 250 MAX:  -30.405405405    AVG:  -30.405405405
HELPER:  ....
---------------------------
CH: 0 238.000000000
CH: 1 165.000000000
CH: 2 243.000000000
CH: 3 363.000000000
CH: 4 183.000000000
CH: 5 65.000000000
CH: 6 225.000000000
CH: 7 20.000000000
CH: 8 277.000000000
CH: 9 223.000000000
CH: 10 363.000000000
CH: 11 74.000000000
CH: 12 244.000000000
CH: 13 105.000000000
CH: 14 173.000000000
CH: 15 225.000000000
CH: 16 171.000000000
CH: 17 196.000000000
CH: 18 163.000000000
CH: 19 128.000000000
CH: 20 322.000000000
CH: 21 171.000000000
CH: 22 299.000000000
CH: 23 155.000000000
CH: 24 46.000000000
CH: 25 238.000000000
CH: 26 94.000000000
CH: 27 243.000000000
CH: 28 237.000000000
CH: 29 299.000000000
CH: 30 234.000000000
CH: 31 363.000000000
CH: 32 114.000000000
CH: 33 128.000000000
CH: 34 227.000000000
CH: 35 285.000000000
CH: 36 238.000000000
CH: 37 272.000000000
CH: 38 39.000000000
CH: 39 243.000000000
CH: 40 84.000000000
CH: 41 163.000000000
CH: 42 365.000000000
CH: 43 170.000000000
CH: 44 135.000000000
CH: 45 155.000000000
CH: 46 195.000000000
CH: 47 316.000000000
CH: 48 185.000000000
CH: 49 71.000000000
CH: 50 248.000000000
CH: 51 114.000000000
CH: 52 170.000000000
CH: 53 39.000000000
CH: 54 210.000000000
CH: 55 26.000000000
CH: 56 130.000000000
CH: 57 211.000000000
CH: 58 170.000000000
CH: 59 89.000000000
CH: 60 244.000000000
CH: 61 244.000000000
CH: 62 272.000000000
CH: 63 185.000000000
CH: 64 46.000000000
CH: 65 20.000000000
CH: 66 65.000000000
CH: 67 338.000000000
CH: 68 89.000000000
CH: 69 1.000000000
CH: 70 1.000000000
CH: 71 1.000000000
CH: 72 1.000000000
CH: 73 196.000000000





END ------------------------
ERROR: 0.000000000
NUM OF COLORS USED = 46
